338 339 333 332 331 330 340 341 343 344 345 346 364 363 362 347 348 349 350 351 415 416 414 413 417 419 418 410 411 412 356 355 353 352 354 357 358 359 361 360 401 402 403 400 399 397 398 370 369 368 367 365 342 366 329 328 327 326 325 324 323 322 373 372 371 396 395 394 393 391 392 390 389 388 387 408 407 406 405 404 409 384 383 385 386 382 425 424 422 420 421 423 426 427 428 429 431 430 432 433 434 435 436 437 438 454 455 456 457 459 460 458 2 3 4 1 0 5 6 572 573 571 466 467 468 469 470 471 472 473 474 570 569 568 20 19 18 17 8 7 9 10 11 16 15 14 13 12 23 22 21 24 25 26 27 28 29 31 30 32 33 34 35 36 37 38 40 41 39 42 43 44 47 48 49 54 53 52 50 51 84 85 86 87 90 89 88 79 80 81 57 82 83 55 56 58 59 60 61 63 64 62 78 77 76 75 74 73 72 65 66 67 68 69 70 71 123 122 121 120 119 118 95 96 97 94 93 92 91 46 45 555 556 557 552 553 554 98 99 100 102 101 551 550 559 558 560 561 562 549 548 564 563 565 566 567 475 476 477 478 479 480 481 482 483 484 485 486 490 491 492 493 524 525 526 523 521 522 517 520 494 495 518 519 497 496 465 464 463 462 461 500 499 452 453 439 440 441 450 449 448 447 446 442 443 444 445 381 380 379 378 377 376 375 374 315 314 316 313 309 310 311 312 451 501 498 502 503 504 505 308 307 304 303 301 302 508 507 506 509 510 511 513 516 515 514 512 527 528 529 530 233 232 224 222 221 220 218 219 193 192 191 190 226 225 189 227 228 229 230 231 533 532 531 489 488 534 487 535 536 537 539 538 540 176 177 178 187 188 186 185 184 183 182 179 181 180 169 171 170 172 175 174 173 542 541 543 544 545 546 547 103 104 105 106 107 108 109 110 111 112 113 114 115 116 117 124 125 126 127 128 129 130 131 132 133 134 135 136 137 138 139 140 141 151 150 149 152 148 147 142 143 144 146 145 158 157 153 156 159 155 154 160 161 162 168 163 167 166 164 165 201 202 204 203 208 207 206 205 200 199 198 197 196 195 194 209 210 211 212 213 214 215 216 217 223 234 235 236 237 240 239 238 246 247 245 244 243 242 241 248 249 250 251 252 254 253 255 256 257 300 306 305 318 317 319 320 321 297 298 299 258 259 260 261 262 263 264 265 266 267 296 295 294 291 292 293 270 269 268 271 272 273 274 275 290 289 288 276 277 278 279 282 281 280 287 286 285 284 283 334 335 336 337